robust/generate/spp_dkp_Lefebvre_et_al_2026/src/shortest_path_7_3.kp
45
172

[5.0 2.78 1.42 0.39 2.25 2.39 0.25 0.83 0.59 3.17 4.33 3.29 5.01 2.38 3.13 1.43 4.94 3.4 2.23 1.47 2.58 0.57 1.15 2.42 1.23 1.96 4.14 0.38 4.67 1.14 3.57 0.56 3.04 2.06]

[95 88 12 76 14 58 23 38 32 19 93 67 57 55 67 49 41 8 58 96 3 73 91 73 48 45 88 92 56 61 48 82 41 48]
