robust/generate/spp_dkp_Lefebvre_et_al_2026/src/shortest_path_7_3.mps
* Signature: 0xc8ba32e33faaac64
NAME sp_7_3
ROWS
 N  OBJ
 E  flow_cons_inner_nodes[0]
 E  flow_cons_inner_nodes[1]
 E  flow_cons_inner_nodes[2]
 E  flow_cons_inner_nodes[5]
 E  flow_cons_inner_nodes[6]
 E  flow_cons_source
 E  flow_cons_target
 L  primal_lower
 L  mccormick1[0,1]
 L  mccormick1[0,2]
 L  mccormick1[0,3]
 L  mccormick1[0,4]
 L  mccormick1[0,5]
 L  mccormick1[0,6]
 L  mccormick1[1,0]
 L  mccormick1[1,2]
 L  mccormick1[1,3]
 L  mccormick1[1,6]
 L  mccormick1[2,0]
 L  mccormick1[2,1]
 L  mccormick1[2,3]
 L  mccormick1[2,4]
 L  mccormick1[2,5]
 L  mccormick1[2,6]
 L  mccormick1[3,0]
 L  mccormick1[3,1]
 L  mccormick1[3,2]
 L  mccormick1[3,5]
 L  mccormick1[3,6]
 L  mccormick1[4,0]
 L  mccormick1[4,2]
 L  mccormick1[4,5]
 L  mccormick1[5,0]
 L  mccormick1[5,2]
 L  mccormick1[5,3]
 L  mccormick1[5,4]
 L  mccormick1[5,6]
 L  mccormick1[6,0]
 L  mccormick1[6,1]
 L  mccormick1[6,2]
 L  mccormick1[6,3]
 L  mccormick1[6,5]
 L  mccormick2[0,1]
 L  mccormick2[0,2]
 L  mccormick2[0,3]
 L  mccormick2[0,4]
 L  mccormick2[0,5]
 L  mccormick2[0,6]
 L  mccormick2[1,0]
 L  mccormick2[1,2]
 L  mccormick2[1,3]
 L  mccormick2[1,6]
 L  mccormick2[2,0]
 L  mccormick2[2,1]
 L  mccormick2[2,3]
 L  mccormick2[2,4]
 L  mccormick2[2,5]
 L  mccormick2[2,6]
 L  mccormick2[3,0]
 L  mccormick2[3,1]
 L  mccormick2[3,2]
 L  mccormick2[3,5]
 L  mccormick2[3,6]
 L  mccormick2[4,0]
 L  mccormick2[4,2]
 L  mccormick2[4,5]
 L  mccormick2[5,0]
 L  mccormick2[5,2]
 L  mccormick2[5,3]
 L  mccormick2[5,4]
 L  mccormick2[5,6]
 L  mccormick2[6,0]
 L  mccormick2[6,1]
 L  mccormick2[6,2]
 L  mccormick2[6,3]
 L  mccormick2[6,5]
 G  mccormick3[0,1]
 G  mccormick3[0,2]
 G  mccormick3[0,3]
 G  mccormick3[0,4]
 G  mccormick3[0,5]
 G  mccormick3[0,6]
 G  mccormick3[1,0]
 G  mccormick3[1,2]
 G  mccormick3[1,3]
 G  mccormick3[1,6]
 G  mccormick3[2,0]
 G  mccormick3[2,1]
 G  mccormick3[2,3]
 G  mccormick3[2,4]
 G  mccormick3[2,5]
 G  mccormick3[2,6]
 G  mccormick3[3,0]
 G  mccormick3[3,1]
 G  mccormick3[3,2]
 G  mccormick3[3,5]
 G  mccormick3[3,6]
 G  mccormick3[4,0]
 G  mccormick3[4,2]
 G  mccormick3[4,5]
 G  mccormick3[5,0]
 G  mccormick3[5,2]
 G  mccormick3[5,3]
 G  mccormick3[5,4]
 G  mccormick3[5,6]
 G  mccormick3[6,0]
 G  mccormick3[6,1]
 G  mccormick3[6,2]
 G  mccormick3[6,3]
 G  mccormick3[6,5]
COLUMNS
    MARKER    'MARKER'                 'INTORG'
    y[0,1]    OBJ       35
    y[0,1]    flow_cons_inner_nodes[0]  -1
    y[0,1]    flow_cons_inner_nodes[1]  1
    y[0,1]    primal_lower  -5
    y[0,1]    mccormick2[0,1]  -1
    y[0,1]    mccormick3[0,1]  -1
    y[0,2]    OBJ       28.3
    y[0,2]    flow_cons_inner_nodes[0]  -1
    y[0,2]    flow_cons_inner_nodes[2]  1
    y[0,2]    primal_lower  -2.78
    y[0,2]    mccormick2[0,2]  -1
    y[0,2]    mccormick3[0,2]  -1
    y[0,3]    OBJ       51.79
    y[0,3]    flow_cons_inner_nodes[0]  -1
    y[0,3]    flow_cons_source  -1
    y[0,3]    primal_lower  -1.42
    y[0,3]    mccormick2[0,3]  -1
    y[0,3]    mccormick3[0,3]  -1
    y[0,4]    OBJ       26.25
    y[0,4]    flow_cons_inner_nodes[0]  -1
    y[0,4]    flow_cons_target  1
    y[0,4]    primal_lower  -0.39
    y[0,4]    mccormick2[0,4]  -1
    y[0,4]    mccormick3[0,4]  -1
    y[0,5]    OBJ       51.09
    y[0,5]    flow_cons_inner_nodes[0]  -1
    y[0,5]    flow_cons_inner_nodes[5]  1
    y[0,5]    primal_lower  -2.25
    y[0,5]    mccormick2[0,5]  -1
    y[0,5]    mccormick3[0,5]  -1
    y[0,6]    OBJ       38.05
    y[0,6]    flow_cons_inner_nodes[0]  -1
    y[0,6]    flow_cons_inner_nodes[6]  1
    y[0,6]    primal_lower  -2.39
    y[0,6]    mccormick2[0,6]  -1
    y[0,6]    mccormick3[0,6]  -1
    y[1,0]    OBJ       35
    y[1,0]    flow_cons_inner_nodes[0]  1
    y[1,0]    flow_cons_inner_nodes[1]  -1
    y[1,0]    primal_lower  -0.25
    y[1,0]    mccormick2[1,0]  -1
    y[1,0]    mccormick3[1,0]  -1
    y[1,2]    OBJ       52.35
    y[1,2]    flow_cons_inner_nodes[1]  -1
    y[1,2]    flow_cons_inner_nodes[2]  1
    y[1,2]    primal_lower  -0.83
    y[1,2]    mccormick2[1,2]  -1
    y[1,2]    mccormick3[1,2]  -1
    y[1,3]    OBJ       35.51
    y[1,3]    flow_cons_inner_nodes[1]  -1
    y[1,3]    flow_cons_source  -1
    y[1,3]    primal_lower  -0.59
    y[1,3]    mccormick2[1,3]  -1
    y[1,3]    mccormick3[1,3]  -1
    y[1,6]    OBJ       31.06
    y[1,6]    flow_cons_inner_nodes[1]  -1
    y[1,6]    flow_cons_inner_nodes[6]  1
    y[1,6]    primal_lower  -3.17
    y[1,6]    mccormick2[1,6]  -1
    y[1,6]    mccormick3[1,6]  -1
    y[2,0]    OBJ       28.3
    y[2,0]    flow_cons_inner_nodes[0]  1
    y[2,0]    flow_cons_inner_nodes[2]  -1
    y[2,0]    primal_lower  -4.33
    y[2,0]    mccormick2[2,0]  -1
    y[2,0]    mccormick3[2,0]  -1
    y[2,1]    OBJ       52.35
    y[2,1]    flow_cons_inner_nodes[1]  1
    y[2,1]    flow_cons_inner_nodes[2]  -1
    y[2,1]    primal_lower  -3.29
    y[2,1]    mccormick2[2,1]  -1
    y[2,1]    mccormick3[2,1]  -1
    y[2,3]    OBJ       48.84
    y[2,3]    flow_cons_inner_nodes[2]  -1
    y[2,3]    flow_cons_source  -1
    y[2,3]    primal_lower  -5.01
    y[2,3]    mccormick2[2,3]  -1
    y[2,3]    mccormick3[2,3]  -1
    y[2,4]    OBJ       23.02
    y[2,4]    flow_cons_inner_nodes[2]  -1
    y[2,4]    flow_cons_target  1
    y[2,4]    primal_lower  -2.38
    y[2,4]    mccormick2[2,4]  -1
    y[2,4]    mccormick3[2,4]  -1
    y[2,5]    OBJ       25.63
    y[2,5]    flow_cons_inner_nodes[2]  -1
    y[2,5]    flow_cons_inner_nodes[5]  1
    y[2,5]    primal_lower  -3.13
    y[2,5]    mccormick2[2,5]  -1
    y[2,5]    mccormick3[2,5]  -1
    y[2,6]    OBJ       34.71
    y[2,6]    flow_cons_inner_nodes[2]  -1
    y[2,6]    flow_cons_inner_nodes[6]  1
    y[2,6]    primal_lower  -1.43
    y[2,6]    mccormick2[2,6]  -1
    y[2,6]    mccormick3[2,6]  -1
    y[3,0]    OBJ       51.79
    y[3,0]    flow_cons_inner_nodes[0]  1
    y[3,0]    flow_cons_source  1
    y[3,0]    primal_lower  -4.94
    y[3,0]    mccormick2[3,0]  -1
    y[3,0]    mccormick3[3,0]  -1
    y[3,1]    OBJ       35.51
    y[3,1]    flow_cons_inner_nodes[1]  1
    y[3,1]    flow_cons_source  1
    y[3,1]    primal_lower  -3.4
    y[3,1]    mccormick2[3,1]  -1
    y[3,1]    mccormick3[3,1]  -1
    y[3,2]    OBJ       48.84
    y[3,2]    flow_cons_inner_nodes[2]  1
    y[3,2]    flow_cons_source  1
    y[3,2]    primal_lower  -2.23
    y[3,2]    mccormick2[3,2]  -1
    y[3,2]    mccormick3[3,2]  -1
    y[3,5]    OBJ       43.68
    y[3,5]    flow_cons_inner_nodes[5]  1
    y[3,5]    flow_cons_source  1
    y[3,5]    primal_lower  -1.47
    y[3,5]    mccormick2[3,5]  -1
    y[3,5]    mccormick3[3,5]  -1
    y[3,6]    OBJ       14.76
    y[3,6]    flow_cons_inner_nodes[6]  1
    y[3,6]    flow_cons_source  1
    y[3,6]    primal_lower  -2.58
    y[3,6]    mccormick2[3,6]  -1
    y[3,6]    mccormick3[3,6]  -1
    y[4,0]    OBJ       26.25
    y[4,0]    flow_cons_inner_nodes[0]  1
    y[4,0]    flow_cons_target  -1
    y[4,0]    primal_lower  -0.57
    y[4,0]    mccormick2[4,0]  -1
    y[4,0]    mccormick3[4,0]  -1
    y[4,2]    OBJ       23.02
    y[4,2]    flow_cons_inner_nodes[2]  1
    y[4,2]    flow_cons_target  -1
    y[4,2]    primal_lower  -1.15
    y[4,2]    mccormick2[4,2]  -1
    y[4,2]    mccormick3[4,2]  -1
    y[4,5]    OBJ       47.68
    y[4,5]    flow_cons_inner_nodes[5]  1
    y[4,5]    flow_cons_target  -1
    y[4,5]    primal_lower  -2.42
    y[4,5]    mccormick2[4,5]  -1
    y[4,5]    mccormick3[4,5]  -1
    y[5,0]    OBJ       51.09
    y[5,0]    flow_cons_inner_nodes[0]  1
    y[5,0]    flow_cons_inner_nodes[5]  -1
    y[5,0]    primal_lower  -1.23
    y[5,0]    mccormick2[5,0]  -1
    y[5,0]    mccormick3[5,0]  -1
    y[5,2]    OBJ       25.63
    y[5,2]    flow_cons_inner_nodes[2]  1
    y[5,2]    flow_cons_inner_nodes[5]  -1
    y[5,2]    primal_lower  -1.96
    y[5,2]    mccormick2[5,2]  -1
    y[5,2]    mccormick3[5,2]  -1
    y[5,3]    OBJ       43.68
    y[5,3]    flow_cons_inner_nodes[5]  -1
    y[5,3]    flow_cons_source  -1
    y[5,3]    primal_lower  -4.14
    y[5,3]    mccormick2[5,3]  -1
    y[5,3]    mccormick3[5,3]  -1
    y[5,4]    OBJ       47.68
    y[5,4]    flow_cons_inner_nodes[5]  -1
    y[5,4]    flow_cons_target  1
    y[5,4]    primal_lower  -0.38
    y[5,4]    mccormick2[5,4]  -1
    y[5,4]    mccormick3[5,4]  -1
    y[5,6]    OBJ       35.01
    y[5,6]    flow_cons_inner_nodes[5]  -1
    y[5,6]    flow_cons_inner_nodes[6]  1
    y[5,6]    primal_lower  -4.67
    y[5,6]    mccormick2[5,6]  -1
    y[5,6]    mccormick3[5,6]  -1
    y[6,0]    OBJ       38.05
    y[6,0]    flow_cons_inner_nodes[0]  1
    y[6,0]    flow_cons_inner_nodes[6]  -1
    y[6,0]    primal_lower  -1.14
    y[6,0]    mccormick2[6,0]  -1
    y[6,0]    mccormick3[6,0]  -1
    y[6,1]    OBJ       31.06
    y[6,1]    flow_cons_inner_nodes[1]  1
    y[6,1]    flow_cons_inner_nodes[6]  -1
    y[6,1]    primal_lower  -3.57
    y[6,1]    mccormick2[6,1]  -1
    y[6,1]    mccormick3[6,1]  -1
    y[6,2]    OBJ       34.71
    y[6,2]    flow_cons_inner_nodes[2]  1
    y[6,2]    flow_cons_inner_nodes[6]  -1
    y[6,2]    primal_lower  -0.56
    y[6,2]    mccormick2[6,2]  -1
    y[6,2]    mccormick3[6,2]  -1
    y[6,3]    OBJ       14.76
    y[6,3]    flow_cons_inner_nodes[6]  -1
    y[6,3]    flow_cons_source  -1
    y[6,3]    primal_lower  -3.04
    y[6,3]    mccormick2[6,3]  -1
    y[6,3]    mccormick3[6,3]  -1
    y[6,5]    OBJ       35.01
    y[6,5]    flow_cons_inner_nodes[5]  1
    y[6,5]    flow_cons_inner_nodes[6]  -1
    y[6,5]    primal_lower  -2.06
    y[6,5]    mccormick2[6,5]  -1
    y[6,5]    mccormick3[6,5]  -1
    u[0,1]    primal_lower  95
    u[0,1]    mccormick1[0,1]  -1
    u[0,1]    mccormick3[0,1]  -1
    u[0,2]    primal_lower  88
    u[0,2]    mccormick1[0,2]  -1
    u[0,2]    mccormick3[0,2]  -1
    u[0,3]    primal_lower  12
    u[0,3]    mccormick1[0,3]  -1
    u[0,3]    mccormick3[0,3]  -1
    u[0,4]    primal_lower  76
    u[0,4]    mccormick1[0,4]  -1
    u[0,4]    mccormick3[0,4]  -1
    u[0,5]    primal_lower  14
    u[0,5]    mccormick1[0,5]  -1
    u[0,5]    mccormick3[0,5]  -1
    u[0,6]    primal_lower  58
    u[0,6]    mccormick1[0,6]  -1
    u[0,6]    mccormick3[0,6]  -1
    u[1,0]    primal_lower  23
    u[1,0]    mccormick1[1,0]  -1
    u[1,0]    mccormick3[1,0]  -1
    u[1,2]    primal_lower  38
    u[1,2]    mccormick1[1,2]  -1
    u[1,2]    mccormick3[1,2]  -1
    u[1,3]    primal_lower  32
    u[1,3]    mccormick1[1,3]  -1
    u[1,3]    mccormick3[1,3]  -1
    u[1,6]    primal_lower  19
    u[1,6]    mccormick1[1,6]  -1
    u[1,6]    mccormick3[1,6]  -1
    u[2,0]    primal_lower  93
    u[2,0]    mccormick1[2,0]  -1
    u[2,0]    mccormick3[2,0]  -1
    u[2,1]    primal_lower  67
    u[2,1]    mccormick1[2,1]  -1
    u[2,1]    mccormick3[2,1]  -1
    u[2,3]    primal_lower  57
    u[2,3]    mccormick1[2,3]  -1
    u[2,3]    mccormick3[2,3]  -1
    u[2,4]    primal_lower  55
    u[2,4]    mccormick1[2,4]  -1
    u[2,4]    mccormick3[2,4]  -1
    u[2,5]    primal_lower  67
    u[2,5]    mccormick1[2,5]  -1
    u[2,5]    mccormick3[2,5]  -1
    u[2,6]    primal_lower  49
    u[2,6]    mccormick1[2,6]  -1
    u[2,6]    mccormick3[2,6]  -1
    u[3,0]    primal_lower  41
    u[3,0]    mccormick1[3,0]  -1
    u[3,0]    mccormick3[3,0]  -1
    u[3,1]    primal_lower  8
    u[3,1]    mccormick1[3,1]  -1
    u[3,1]    mccormick3[3,1]  -1
    u[3,2]    primal_lower  58
    u[3,2]    mccormick1[3,2]  -1
    u[3,2]    mccormick3[3,2]  -1
    u[3,5]    primal_lower  96
    u[3,5]    mccormick1[3,5]  -1
    u[3,5]    mccormick3[3,5]  -1
    u[3,6]    primal_lower  3
    u[3,6]    mccormick1[3,6]  -1
    u[3,6]    mccormick3[3,6]  -1
    u[4,0]    primal_lower  73
    u[4,0]    mccormick1[4,0]  -1
    u[4,0]    mccormick3[4,0]  -1
    u[4,2]    primal_lower  91
    u[4,2]    mccormick1[4,2]  -1
    u[4,2]    mccormick3[4,2]  -1
    u[4,5]    primal_lower  73
    u[4,5]    mccormick1[4,5]  -1
    u[4,5]    mccormick3[4,5]  -1
    u[5,0]    primal_lower  48
    u[5,0]    mccormick1[5,0]  -1
    u[5,0]    mccormick3[5,0]  -1
    u[5,2]    primal_lower  45
    u[5,2]    mccormick1[5,2]  -1
    u[5,2]    mccormick3[5,2]  -1
    u[5,3]    primal_lower  88
    u[5,3]    mccormick1[5,3]  -1
    u[5,3]    mccormick3[5,3]  -1
    u[5,4]    primal_lower  92
    u[5,4]    mccormick1[5,4]  -1
    u[5,4]    mccormick3[5,4]  -1
    u[5,6]    primal_lower  56
    u[5,6]    mccormick1[5,6]  -1
    u[5,6]    mccormick3[5,6]  -1
    u[6,0]    primal_lower  61
    u[6,0]    mccormick1[6,0]  -1
    u[6,0]    mccormick3[6,0]  -1
    u[6,1]    primal_lower  48
    u[6,1]    mccormick1[6,1]  -1
    u[6,1]    mccormick3[6,1]  -1
    u[6,2]    primal_lower  82
    u[6,2]    mccormick1[6,2]  -1
    u[6,2]    mccormick3[6,2]  -1
    u[6,3]    primal_lower  41
    u[6,3]    mccormick1[6,3]  -1
    u[6,3]    mccormick3[6,3]  -1
    u[6,5]    primal_lower  48
    u[6,5]    mccormick1[6,5]  -1
    u[6,5]    mccormick3[6,5]  -1
    r[0,1]    OBJ       3.5
    r[0,1]    mccormick1[0,1]  1
    r[0,1]    mccormick2[0,1]  1
    r[0,1]    mccormick3[0,1]  1
    r[0,2]    OBJ       2.83
    r[0,2]    mccormick1[0,2]  1
    r[0,2]    mccormick2[0,2]  1
    r[0,2]    mccormick3[0,2]  1
    r[0,3]    OBJ       5.179
    r[0,3]    mccormick1[0,3]  1
    r[0,3]    mccormick2[0,3]  1
    r[0,3]    mccormick3[0,3]  1
    r[0,4]    OBJ       2.625
    r[0,4]    mccormick1[0,4]  1
    r[0,4]    mccormick2[0,4]  1
    r[0,4]    mccormick3[0,4]  1
    r[0,5]    OBJ       5.1090000000000009e+00
    r[0,5]    mccormick1[0,5]  1
    r[0,5]    mccormick2[0,5]  1
    r[0,5]    mccormick3[0,5]  1
    r[0,6]    OBJ       3.8049999999999997e+00
    r[0,6]    mccormick1[0,6]  1
    r[0,6]    mccormick2[0,6]  1
    r[0,6]    mccormick3[0,6]  1
    r[1,0]    OBJ       3.5
    r[1,0]    mccormick1[1,0]  1
    r[1,0]    mccormick2[1,0]  1
    r[1,0]    mccormick3[1,0]  1
    r[1,2]    OBJ       5.235
    r[1,2]    mccormick1[1,2]  1
    r[1,2]    mccormick2[1,2]  1
    r[1,2]    mccormick3[1,2]  1
    r[1,3]    OBJ       3.551
    r[1,3]    mccormick1[1,3]  1
    r[1,3]    mccormick2[1,3]  1
    r[1,3]    mccormick3[1,3]  1
    r[1,6]    OBJ       3.106
    r[1,6]    mccormick1[1,6]  1
    r[1,6]    mccormick2[1,6]  1
    r[1,6]    mccormick3[1,6]  1
    r[2,0]    OBJ       2.83
    r[2,0]    mccormick1[2,0]  1
    r[2,0]    mccormick2[2,0]  1
    r[2,0]    mccormick3[2,0]  1
    r[2,1]    OBJ       5.235
    r[2,1]    mccormick1[2,1]  1
    r[2,1]    mccormick2[2,1]  1
    r[2,1]    mccormick3[2,1]  1
    r[2,3]    OBJ       4.884
    r[2,3]    mccormick1[2,3]  1
    r[2,3]    mccormick2[2,3]  1
    r[2,3]    mccormick3[2,3]  1
    r[2,4]    OBJ       2.302
    r[2,4]    mccormick1[2,4]  1
    r[2,4]    mccormick2[2,4]  1
    r[2,4]    mccormick3[2,4]  1
    r[2,5]    OBJ       2.563
    r[2,5]    mccormick1[2,5]  1
    r[2,5]    mccormick2[2,5]  1
    r[2,5]    mccormick3[2,5]  1
    r[2,6]    OBJ       3.471
    r[2,6]    mccormick1[2,6]  1
    r[2,6]    mccormick2[2,6]  1
    r[2,6]    mccormick3[2,6]  1
    r[3,0]    OBJ       5.179
    r[3,0]    mccormick1[3,0]  1
    r[3,0]    mccormick2[3,0]  1
    r[3,0]    mccormick3[3,0]  1
    r[3,1]    OBJ       3.551
    r[3,1]    mccormick1[3,1]  1
    r[3,1]    mccormick2[3,1]  1
    r[3,1]    mccormick3[3,1]  1
    r[3,2]    OBJ       4.884
    r[3,2]    mccormick1[3,2]  1
    r[3,2]    mccormick2[3,2]  1
    r[3,2]    mccormick3[3,2]  1
    r[3,5]    OBJ       4.368
    r[3,5]    mccormick1[3,5]  1
    r[3,5]    mccormick2[3,5]  1
    r[3,5]    mccormick3[3,5]  1
    r[3,6]    OBJ       1.476
    r[3,6]    mccormick1[3,6]  1
    r[3,6]    mccormick2[3,6]  1
    r[3,6]    mccormick3[3,6]  1
    r[4,0]    OBJ       2.625
    r[4,0]    mccormick1[4,0]  1
    r[4,0]    mccormick2[4,0]  1
    r[4,0]    mccormick3[4,0]  1
    r[4,2]    OBJ       2.302
    r[4,2]    mccormick1[4,2]  1
    r[4,2]    mccormick2[4,2]  1
    r[4,2]    mccormick3[4,2]  1
    r[4,5]    OBJ       4.768
    r[4,5]    mccormick1[4,5]  1
    r[4,5]    mccormick2[4,5]  1
    r[4,5]    mccormick3[4,5]  1
    r[5,0]    OBJ       5.1090000000000009e+00
    r[5,0]    mccormick1[5,0]  1
    r[5,0]    mccormick2[5,0]  1
    r[5,0]    mccormick3[5,0]  1
    r[5,2]    OBJ       2.563
    r[5,2]    mccormick1[5,2]  1
    r[5,2]    mccormick2[5,2]  1
    r[5,2]    mccormick3[5,2]  1
    r[5,3]    OBJ       4.368
    r[5,3]    mccormick1[5,3]  1
    r[5,3]    mccormick2[5,3]  1
    r[5,3]    mccormick3[5,3]  1
    r[5,4]    OBJ       4.768
    r[5,4]    mccormick1[5,4]  1
    r[5,4]    mccormick2[5,4]  1
    r[5,4]    mccormick3[5,4]  1
    r[5,6]    OBJ       3.501
    r[5,6]    mccormick1[5,6]  1
    r[5,6]    mccormick2[5,6]  1
    r[5,6]    mccormick3[5,6]  1
    r[6,0]    OBJ       3.8049999999999997e+00
    r[6,0]    mccormick1[6,0]  1
    r[6,0]    mccormick2[6,0]  1
    r[6,0]    mccormick3[6,0]  1
    r[6,1]    OBJ       3.106
    r[6,1]    mccormick1[6,1]  1
    r[6,1]    mccormick2[6,1]  1
    r[6,1]    mccormick3[6,1]  1
    r[6,2]    OBJ       3.471
    r[6,2]    mccormick1[6,2]  1
    r[6,2]    mccormick2[6,2]  1
    r[6,2]    mccormick3[6,2]  1
    r[6,3]    OBJ       1.476
    r[6,3]    mccormick1[6,3]  1
    r[6,3]    mccormick2[6,3]  1
    r[6,3]    mccormick3[6,3]  1
    r[6,5]    OBJ       3.501
    r[6,5]    mccormick1[6,5]  1
    r[6,5]    mccormick2[6,5]  1
    r[6,5]    mccormick3[6,5]  1
    MARKER    'MARKER'                 'INTEND'
RHS
    RHS1      flow_cons_source  1
    RHS1      flow_cons_target  1
    RHS1      primal_lower  172
    RHS1      mccormick3[0,1]  -1
    RHS1      mccormick3[0,2]  -1
    RHS1      mccormick3[0,3]  -1
    RHS1      mccormick3[0,4]  -1
    RHS1      mccormick3[0,5]  -1
    RHS1      mccormick3[0,6]  -1
    RHS1      mccormick3[1,0]  -1
    RHS1      mccormick3[1,2]  -1
    RHS1      mccormick3[1,3]  -1
    RHS1      mccormick3[1,6]  -1
    RHS1      mccormick3[2,0]  -1
    RHS1      mccormick3[2,1]  -1
    RHS1      mccormick3[2,3]  -1
    RHS1      mccormick3[2,4]  -1
    RHS1      mccormick3[2,5]  -1
    RHS1      mccormick3[2,6]  -1
    RHS1      mccormick3[3,0]  -1
    RHS1      mccormick3[3,1]  -1
    RHS1      mccormick3[3,2]  -1
    RHS1      mccormick3[3,5]  -1
    RHS1      mccormick3[3,6]  -1
    RHS1      mccormick3[4,0]  -1
    RHS1      mccormick3[4,2]  -1
    RHS1      mccormick3[4,5]  -1
    RHS1      mccormick3[5,0]  -1
    RHS1      mccormick3[5,2]  -1
    RHS1      mccormick3[5,3]  -1
    RHS1      mccormick3[5,4]  -1
    RHS1      mccormick3[5,6]  -1
    RHS1      mccormick3[6,0]  -1
    RHS1      mccormick3[6,1]  -1
    RHS1      mccormick3[6,2]  -1
    RHS1      mccormick3[6,3]  -1
    RHS1      mccormick3[6,5]  -1
BOUNDS
 BV BND1      y[0,1]  
 BV BND1      y[0,2]  
 BV BND1      y[0,3]  
 BV BND1      y[0,4]  
 BV BND1      y[0,5]  
 BV BND1      y[0,6]  
 BV BND1      y[1,0]  
 BV BND1      y[1,2]  
 BV BND1      y[1,3]  
 BV BND1      y[1,6]  
 BV BND1      y[2,0]  
 BV BND1      y[2,1]  
 BV BND1      y[2,3]  
 BV BND1      y[2,4]  
 BV BND1      y[2,5]  
 BV BND1      y[2,6]  
 BV BND1      y[3,0]  
 BV BND1      y[3,1]  
 BV BND1      y[3,2]  
 BV BND1      y[3,5]  
 BV BND1      y[3,6]  
 BV BND1      y[4,0]  
 BV BND1      y[4,2]  
 BV BND1      y[4,5]  
 BV BND1      y[5,0]  
 BV BND1      y[5,2]  
 BV BND1      y[5,3]  
 BV BND1      y[5,4]  
 BV BND1      y[5,6]  
 BV BND1      y[6,0]  
 BV BND1      y[6,1]  
 BV BND1      y[6,2]  
 BV BND1      y[6,3]  
 BV BND1      y[6,5]  
 BV BND1      u[0,1]  
 BV BND1      u[0,2]  
 BV BND1      u[0,3]  
 BV BND1      u[0,4]  
 BV BND1      u[0,5]  
 BV BND1      u[0,6]  
 BV BND1      u[1,0]  
 BV BND1      u[1,2]  
 BV BND1      u[1,3]  
 BV BND1      u[1,6]  
 BV BND1      u[2,0]  
 BV BND1      u[2,1]  
 BV BND1      u[2,3]  
 BV BND1      u[2,4]  
 BV BND1      u[2,5]  
 BV BND1      u[2,6]  
 BV BND1      u[3,0]  
 BV BND1      u[3,1]  
 BV BND1      u[3,2]  
 BV BND1      u[3,5]  
 BV BND1      u[3,6]  
 BV BND1      u[4,0]  
 BV BND1      u[4,2]  
 BV BND1      u[4,5]  
 BV BND1      u[5,0]  
 BV BND1      u[5,2]  
 BV BND1      u[5,3]  
 BV BND1      u[5,4]  
 BV BND1      u[5,6]  
 BV BND1      u[6,0]  
 BV BND1      u[6,1]  
 BV BND1      u[6,2]  
 BV BND1      u[6,3]  
 BV BND1      u[6,5]  
 BV BND1      r[0,1]  
 BV BND1      r[0,2]  
 BV BND1      r[0,3]  
 BV BND1      r[0,4]  
 BV BND1      r[0,5]  
 BV BND1      r[0,6]  
 BV BND1      r[1,0]  
 BV BND1      r[1,2]  
 BV BND1      r[1,3]  
 BV BND1      r[1,6]  
 BV BND1      r[2,0]  
 BV BND1      r[2,1]  
 BV BND1      r[2,3]  
 BV BND1      r[2,4]  
 BV BND1      r[2,5]  
 BV BND1      r[2,6]  
 BV BND1      r[3,0]  
 BV BND1      r[3,1]  
 BV BND1      r[3,2]  
 BV BND1      r[3,5]  
 BV BND1      r[3,6]  
 BV BND1      r[4,0]  
 BV BND1      r[4,2]  
 BV BND1      r[4,5]  
 BV BND1      r[5,0]  
 BV BND1      r[5,2]  
 BV BND1      r[5,3]  
 BV BND1      r[5,4]  
 BV BND1      r[5,6]  
 BV BND1      r[6,0]  
 BV BND1      r[6,1]  
 BV BND1      r[6,2]  
 BV BND1      r[6,3]  
 BV BND1      r[6,5]  
ENDATA
